NAME: Random_80_2
ELLAPSED_TIME_(ms): 2
TOUR_SIZE: 2411.4963
TOUR_SECTION
0
17
41
19
23
51
47
32
68
65
14
30
25
7
4
38
58
72
11
6
18
35
60
61
73
16
42
12
22
78
49
48
31
50
70
15
57
66
74
76
34
56
53
59
5
36
75
1
67
21
44
77
29
79
28
62
63
43
39
54
24
33
9
8
46
27
71
64
45
37
40
2
3
13
10
55
26
52
69
20
0
EOF
